5725 103  0
5691 69  1
5803 169  1
5797 174  1
5752 123  3
5769 90  3
5791 169  4
5795 168  4
5722 98  4
5744 122  5
5732 110  6
5767 96  7
5735 108  7
5752 130  8
5753 125  8
5721 87  10
5794 124  11
5778 127  11
5811 118  11
5761 132  11
5756 133  12
5742 90  13
5753 82  13
5739 115  13
5789 70  13
5697 75  14
5698 67  15
5694 71  16
5747 67  16
5719 97  17
5747 125  18
5780 111  18
5721 98  19
5694 66  19
5784 150  20
5774 151  21
5788 166  22
5751 128  23
5741 119  24
5749 125  25
5759 123  25
5745 112  26
5793 170  27
5748 120  28
5649 24  29
5715 84  30
5730 107  31
5742 113  32
5702 71  33
5865 116  34
5752 124  34
5758 136  35
5759 134  36
5650 18  37
5765 139  39
5692 70  40
5806 182  41
5728 106  42
5828 171  43
5808 186  43
5666 44  44
5776 154  45
5709 78  46
5723 65  46
5706 79  46
5746 124  47
5754 132  48
5692 68  49
